
# 2NN EAM potential in LAMMPS

 units		metal
 atom_style	atomic
 boundary	f f f

 read_data	15.ini
 pair_style	meam
 pair_coeff	* * ..\..\LAMMPS\library.meam Pt Ni ..\..\LAMMPS\PtNiV2.pot Pt Ni 
 
 neighbor	0.5 bin
 neigh_modify	every 1 delay 0 check yes once no
 velocity	all create 0.00 13478 rot yes mom yes dist gaussian
 timestep	0.005

 fix            1 all nve
 fix            2 all temp/rescale 10 0.00 0.00 1.0 1
 thermo         100
 thermo_style   custom step temp atoms pe ke etotal
 thermo_modify  lost ignore
 run 100

 unfix 2
 fix         3 all temp/berendsen 0.0 300.0 0.1
 thermo		100
 run		1000

 unfix 3
 timestep   0.001
 thermo		100
 fix		4 all langevin 300.0 300.0 0.5 87654
 dump           4 all xyz 200 15_d.xyz
 run		200
