
# 2NN EAM potential in LAMMPS

 units		metal
 atom_style	atomic
 boundary	f f f

 read_data	cube.ini
 pair_style	meam
 pair_coeff	* * ..\..\LAMMPS\library.meam Pt Ni ..\..\LAMMPS\PtNiV2.pot Pt Ni 
 
 neighbor	0.5 bin
 neigh_modify	every 1 delay 0 check yes once no
 velocity	all create 300.00 13478 rot yes mom yes dist gaussian
 timestep	0.005

 fix            1 all nve

 thermo_style   custom step temp atoms pe ke etotal
 thermo_modify  lost ignore
 
 fix 2 all langevin 300.0 300.0 0.5 32432
 run 1

 unfix 2
 timestep   0.001
 thermo		100
 fix		4 all langevin 300.0 300.0 0.5 87654
 dump           4 all xyz 1000 cube_d.xyz
 run		1000
