# 2NN EAM potential in LAMMPS

 units		metal
 atom_style	atomic
 boundary	f f f

 read_data	Pt-rad.ini
 pair_style	meam
 pair_coeff	* * library.meam Pt Ni PtNiV2.pot Pt Ni 
 
 neighbor	0.5 bin
 neigh_modify	every 1 delay 0 check yes once no
 velocity	all create 0.00 13478 rot yes mom yes dist gaussian
 timestep	0.005

 fix            1 all nve
 fix            2 all temp/rescale 10 0.00 300.00 1.0 1
 thermo         100
 thermo_style   custom step temp atoms pe ke etotal
 thermo_modify  lost ignore
# dump 1 all xyz 1 dump_temp.xyz
# undump 1
# run 1
 dump 2 all xyz 10 Pt-rad.xyz
 run 2499

# unfix 2
# fix         3 all temp/berendsen 300.0 300.0 0.1
# thermo		100
# dump 2 all xyz 1 dump_temp.xyz
# undump 2
# run 1
# dump            3 all xyz 500 j2.xyz
# run		500

# unfix 3
# timestep	0.001
# timestep 0.005
# thermo		100
# fix		4 all langevin 400.0 300.0 0.5 87654
# dump 4 all xyz 1 dump_temp.xyz
# undump 4
# run 1
# dump           4 all xyz 500 s3.xyz
# run		499
